SPARKNaCl/why3-z3/sparknacl.ads_120_51_index_check2_1.smt2
;; produced by z3_gnatprove.drv ;;
(set-info :smt-lib-version 2.5)
(set-info :source |VC generated by SPARK 2014|)
(set-info :category industrial)
(set-info :status unknown)
;;; generated by SMT-LIB2 driver
;;; SMT-LIB2 driver: bit-vectors, common part
;;; SMT-LIB2: integer arithmetic
(declare-datatypes ()
  ((int__ref (int__refqtmk (int__content Int)))))

(declare-datatypes ()
  ((bool__ref (bool__refqtmk (bool__content Bool)))))

(declare-sort tinteger_32B 0)

;; "tinteger_32B'int"
(declare-fun tinteger_32Bqtint (tinteger_32B) Int)

;; "tinteger_32B'axiom"
(assert
  (forall ((i tinteger_32B))
    (and
      (<= (- 2147483648) (tinteger_32Bqtint i))
      (<= (tinteger_32Bqtint i) 2147483647))))

;; "in_range"
(define-fun in_range ((x Int)) Bool
  (and (<= (- 2147483648) x) (<= x 2147483647)))

(declare-sort byte 0)

;; "to_rep"
(define-fun to_rep ((x tinteger_32B)) Int
  (tinteger_32Bqtint x))

;; "of_rep"
(declare-fun of_rep (Int) tinteger_32B)

;; "inversion_axiom"
(assert
  (forall ((x tinteger_32B))
    (! (= (of_rep (to_rep x)) x) :pattern ((to_rep x)) )))

;; "range_axiom"
(assert
  (forall ((x tinteger_32B))
    (! (in_range (to_rep x)) :pattern ((to_rep x)) )))

;; "coerce_axiom"
(assert
  (forall ((x Int))
    (! (=> (in_range x) (= (to_rep (of_rep x)) x)) :pattern ((to_rep
                                                               (of_rep x))) )))

;; "in_range"
(define-fun in_range1 ((x Int)) Bool
  (and (<= 0 x) (<= x 2147483647)))

;; "to_rep"
(declare-fun to_rep1 (byte) (_ BitVec 8))

;; "of_rep"
(declare-fun of_rep1 ((_ BitVec 8)) byte)

;; "inversion_axiom"
(assert
  (forall ((x byte)) (! (= (of_rep1 (to_rep1 x)) x) :pattern ((to_rep1 x)) )))

;; "range_axiom"
(assert true)

;; "coerce_axiom"
(assert
  (forall ((x (_ BitVec 8)))
    (! (= (to_rep1 (of_rep1 x)) x) :pattern ((to_rep1 (of_rep1 x))) )))

(declare-sort map1 0)

;; "has_bounds"
(declare-fun has_bounds (map1
  Int
  Int) Bool)

;; "get"
(declare-fun get (map1
  Int) byte)

(declare-datatypes ()
  ((t (tqtmk (rec__first tinteger_32B)(rec__last tinteger_32B)))))

;; "dynamic_property"
(define-fun dynamic_property ((range_first Int) (range_last Int) (low Int) (high Int)) Bool
  (and
    (in_range low)
    (and
      (in_range high)
      (=> (<= low high) (and (in_range1 low) (in_range1 high))))))

(declare-datatypes ()
  ((us_t (us_tqtmk (elts map1)(rt t)))))

;; "to_array"
(define-fun to_array ((a us_t)) map1
  (elts a))

;; "first"
(define-fun first ((a us_t)) Int
  (to_rep (rec__first (rt a))))

;; "last"
(define-fun last ((a us_t)) Int
  (to_rep (rec__last (rt a))))

;; "well_formed"
(define-fun well_formed ((a us_t)) Bool
  (has_bounds
    (elts a)
    (to_rep (rec__first (rt a)))
    (to_rep (rec__last (rt a)))))

(declare-const x us_t)

(declare-const y us_t)

;; "dynamic_invariant"
(define-fun dynamic_invariant ((temp___expr_387 us_t) (temp___is_init_383 Bool) (temp___skip_constant_384 Bool) (temp___do_toplevel_385 Bool) (temp___do_typ_inv_386 Bool)) Bool
  (and
    (=>
      (not (= temp___skip_constant_384 true))
      (dynamic_property
        0
        2147483647
        (first temp___expr_387)
        (last temp___expr_387)))
    (well_formed temp___expr_387)))

;; "Assume"
(assert (dynamic_invariant x true false true true))

;; "Assume"
(assert (dynamic_invariant y true false true true))

;; "Assume"
(assert (and (= (first x) (first y)) (= (last x) (last y))))

(declare-const d Bool)

;; "d'unused"
(define-fun dqtunused () bool__ref
  (bool__refqtmk d))

;; "H"
(assert (= d true))

(declare-const d1 Bool)

;; "d'unused"
(define-fun dqtunused1 () bool__ref
  (bool__refqtmk d1))

(declare-const temp___1437 Int)

;; "H"
(assert (= temp___1437 (first x)))

(declare-const firstqtresultqtunused Int)

;; "H"
(assert (= firstqtresultqtunused temp___1437))

(declare-const temp___1438 Int)

;; "H"
(assert (= temp___1438 (last x)))

(declare-const lastqtresultqtunused Int)

;; "H"
(assert (= lastqtresultqtunused temp___1438))

(declare-const i Int)

(declare-const iqtunused int__ref)

;; "H"
(assert (= iqtunused (int__refqtmk i)))

;; "H"
(assert (= i temp___1437))

(declare-const int__contentqtresultqtunused Int)

;; "H"
(assert (= int__contentqtresultqtunused i))

(declare-const o Bool)

;; "H"
(assert (= o (ite (<= i temp___1438) true false)))

(declare-const infix_lseqqtresultqtunused Bool)

;; "H"
(assert (= infix_lseqqtresultqtunused o))

(declare-const int__contentqtresultqtunused1 Int)

;; "H"
(assert (= int__contentqtresultqtunused1 i))

(declare-const o1 Bool)

;; "H"
(assert (= o1 (ite (<= temp___1437 i) true false)))

(declare-const infix_lseqqtresultqtunused1 Bool)

;; "H"
(assert (= infix_lseqqtresultqtunused1 o1))

(declare-const o2 Bool)

;; "H"
(assert (= o2 (and o1 o)))

(declare-const andbqtresultqtunused Bool)

;; "H"
(assert (= andbqtresultqtunused o2))

(declare-const temp___loop_entry_1441qtunused Bool)

(declare-const bool__contentqtresultqtunused Bool)

(declare-const int__contentqtresultqtunused2 Int)

(declare-const o3 map1)

(declare-const to_arrayqtresultqtunused map1)

(declare-const o4 byte)

(declare-const getqtresultqtunused byte)

(declare-const o5 (_ BitVec 8))

(declare-const to_repqtresultqtunused (_ BitVec 8))

(declare-const int__contentqtresultqtunused3 Int)

(declare-const o6 map1)

(declare-const to_arrayqtresultqtunused1 map1)

(declare-const o7 byte)

(declare-const getqtresultqtunused1 byte)

(declare-const o8 (_ BitVec 8))

(declare-const to_repqtresultqtunused1 (_ BitVec 8))

(declare-const o9 Bool)

(declare-const eqqtresultqtunused Bool)

(declare-const bool__contentqtresultqtunused1 Bool)

(declare-const o10 Bool)

(declare-const andbqtresultqtunused1 Bool)

(declare-const d2 Bool)

(declare-const dqtunused2 bool__ref)

(declare-const usf Bool)

(declare-const anyqtresultqtunused Bool)

(declare-const bool__contentqtresultqtunused2 Bool)

(declare-const bool_eqqtresultqtunused Bool)

(declare-const i1 Int)

(declare-const iqtunused1 int__ref)

(declare-const int__contentqtresultqtunused4 Int)

(declare-const infix_eqqtresultqtunused Bool)

(declare-const usf1 Int)

(declare-const anyqtresultqtunused1 Int)

(declare-const jqtunused Int)

(declare-const int__contentqtresultqtunused5 Int)

(declare-const o11 Bool)

(declare-const infix_lseqqtresultqtunused2 Bool)

(declare-const o12 Int)

(declare-const firstqtresultqtunused1 Int)

(declare-const o13 Bool)

(declare-const infix_lseqqtresultqtunused3 Bool)

(declare-const andbqtresultqtunused2 Bool)

;; "H"
(assert
  (ite (= o2 true)
    (and
      (= temp___loop_entry_1441qtunused d)
      (and
        (= bool__contentqtresultqtunused d)
        (and
          (= int__contentqtresultqtunused2 i)
          (and
            (and (<= (first y) i) (<= i (last y)))
            (and
              (= o3 (to_array y))
              (and
                (= to_arrayqtresultqtunused o3)
                (and
                  (= o4 (get o3 i))
                  (and
                    (= getqtresultqtunused o4)
                    (and
                      (= (to_rep1 o4) o5)
                      (and
                        (= to_repqtresultqtunused o5)
                        (and
                          (= int__contentqtresultqtunused3 i)
                          (and
                            (= o6 (to_array x))
                            (and
                              (= to_arrayqtresultqtunused1 o6)
                              (and
                                (= o7 (get o6 i))
                                (and
                                  (= getqtresultqtunused1 o7)
                                  (and
                                    (= (to_rep1 o7) o8)
                                    (and
                                      (= to_repqtresultqtunused1 o8)
                                      (and
                                        (= o9 (ite (= o8 o5) true false))
                                        (and
                                          (= eqqtresultqtunused o9)
                                          (and
                                            (= bool__contentqtresultqtunused1 
                                            d)
                                            (and
                                              (= o10 (and d o9))
                                              (and
                                                (= andbqtresultqtunused1 
                                                o10)
                                                (and
                                                  (= dqtunused2 (bool__refqtmk
                                                                  d2))
                                                  (and
                                                    (= d2 o10)
                                                    (and
                                                      (and
                                                        (= anyqtresultqtunused1 
                                                        usf1)
                                                        (and
                                                          (= jqtunused 
                                                          usf1)
                                                          (and
                                                            (= int__contentqtresultqtunused5 
                                                            i)
                                                            (and
                                                              (= o11 
                                                              (ite (<= 
                                                                usf1 
                                                                i)
                                                                true
                                                                false))
                                                              (and
                                                                (= infix_lseqqtresultqtunused2 
                                                                o11)
                                                                (and
                                                                  (= 
                                                                  o12 
                                                                  (first
                                                                    x))
                                                                  (and
                                                                    (= 
                                                                    firstqtresultqtunused1 
                                                                    o12)
                                                                    (and
                                                                    (= 
                                                                    o13 
                                                                    (ite (<= 
                                                                    o12 
                                                                    usf1)
                                                                    true
                                                                    false))
                                                                    (and
                                                                    (= 
                                                                    infix_lseqqtresultqtunused3 
                                                                    o13)
                                                                    (= 
                                                                    andbqtresultqtunused2 (and 
                                                                    o13 
                                                                    o11)))))))))))
                                                      (and
                                                        (= usf (ite (forall 
                                                                    ((j Int))
                                                                    (=>
                                                                    (and
                                                                    (<= 
                                                                    (first
                                                                    x) j)
                                                                    (<= j 
                                                                    i))
                                                                    (= 
                                                                    (to_rep1
                                                                    (get
                                                                    (to_array
                                                                    x)
                                                                    j)) 
                                                                    (to_rep1
                                                                    (get
                                                                    (to_array
                                                                    y)
                                                                    j)))))
                                                                 true
                                                                 false))
                                                        (and
                                                          (= anyqtresultqtunused 
                                                          usf)
                                                          (and
                                                            (= bool__contentqtresultqtunused2 
                                                            d2)
                                                            (and
                                                              (= bool_eqqtresultqtunused 
                                                              (ite (= 
                                                                d2 usf)
                                                                true
                                                                false))
                                                              (and
                                                                (= iqtunused1 
                                                                (int__refqtmk
                                                                  i1))
                                                                (and
                                                                  (=
                                                                    (= 
                                                                    d1 true)
                                                                    (forall 
                                                                    ((j Int))
                                                                    (=>
                                                                    (and
                                                                    (<= 
                                                                    (first
                                                                    x) j)
                                                                    (<= j 
                                                                    i1))
                                                                    (= 
                                                                    (to_rep1
                                                                    (get
                                                                    (to_array
                                                                    x)
                                                                    j)) 
                                                                    (to_rep1
                                                                    (get
                                                                    (to_array
                                                                    y)
                                                                    j))))))
                                                                  (and
                                                                    (= (and 
                                                                    (ite true
                                                                    true
                                                                    false) 
                                                                    (ite 
                                                                    (and
                                                                    (<= 
                                                                    (first
                                                                    x) 
                                                                    i1)
                                                                    (<= 
                                                                    i1 
                                                                    (last
                                                                    x)))
                                                                    true
                                                                    false)) true)
                                                                    (and
                                                                    (= 
                                                                    int__contentqtresultqtunused4 
                                                                    i1)
                                                                    (and
                                                                    (= 
                                                                    infix_eqqtresultqtunused 
                                                                    (ite (= 
                                                                    i1 
                                                                    temp___1438)
                                                                    true
                                                                    false))
                                                                    (= 
                                                                    i1 
                                                                    temp___1438)))))))))))))))))))))))))))))))))))
    (= d1 d)))

;; "bool__content'result'unused"
(define-fun bool__contentqtresultqtunused3 () Bool
  d1)

(declare-const sparknacl__equal__result Bool)

;; "sparknacl__equal__result'unused"
(define-fun sparknacl__equal__resultqtunused () bool__ref
  (bool__refqtmk sparknacl__equal__result))

;; "H"
(assert (= sparknacl__equal__result d1))

(declare-const usf2 Int)

;; "any'result'unused"
(define-fun anyqtresultqtunused2 () Int
  usf2)

;; "i'unused"
(define-fun iqtunused2 () Int
  usf2)

;; "o"
(define-fun o14 () Int
  (last x))

;; "last'result'unused"
(define-fun lastqtresultqtunused1 () Int
  o14)

;; "o"
(define-fun o15 () Bool
  (ite (<= usf2 o14) true false))

;; "infix <='result'unused"
(define-fun infix_lseqqtresultqtunused4 () Bool
  o15)

;; "o"
(define-fun o16 () Int
  (first x))

;; "first'result'unused"
(define-fun firstqtresultqtunused2 () Int
  o16)

;; "o"
(define-fun o17 () Bool
  (ite (<= o16 usf2) true false))

;; "infix <='result'unused"
(define-fun infix_lseqqtresultqtunused5 () Bool
  o17)

;; "o"
(define-fun o18 () Bool
  (and o17 o15))

;; "andb'result'unused"
(define-fun andbqtresultqtunused3 () Bool
  o18)

;; "H"
(assert (= o18 true))

;; "Assert"
(assert (and (<= (first y) usf2) (<= usf2 (last y))))

;; "o"
(define-fun o19 () map1
  (to_array y))

;; "to_array'result'unused"
(define-fun to_arrayqtresultqtunused2 () map1
  o19)

;; "o"
(define-fun o20 () byte
  (get o19 usf2))

;; "get'result'unused"
(define-fun getqtresultqtunused2 () byte
  o20)

(declare-const o21 (_ BitVec 8))

;; "Ensures"
(assert (= (to_rep1 o20) o21))

;; "to_rep'result'unused"
(define-fun to_repqtresultqtunused2 () (_ BitVec 8)
  o21)

;; Goal "def'vc"
;; File "sparknacl.ads", line 114, characters 0-0
(assert
  (not (<= usf2 (last x))))

(check-sat)
